\ENCODING=ISO-8859-1
\Problem name: IloCplex

Minimize
 obj1: Y_1#0 + Y_2#1 + Y_3#2 + Y_4#3 + Y_5#4 + Y_6#5 + Y_7#6 + Y_1#7 + Y_2#8
       + Y_3#9 + Y_4#10 + Y_5#11 + Y_6#12 + Y_7#13
Subject To
 c1:  Y_1#0 + Y_2#1 + Y_4#3 + Y_7#6 - X_1#14 - X_3#15 - X_5#16 - X_9#17 >= 0
 c2:  3 Y_6#5 + Y_7#6 - X_6#18 - X_10#19 >= 0
 c3:  Y_7#6 - X_11#20 >= 0
 c4:  Y_2#1 + 5 Y_3#2 + 2 Y_4#3 + Y_5#4 - X_4#21 - X_7#22 - X_12#23 >= 0
 c5:  Y_1#0 + 3 Y_5#4 + Y_6#5 - X_2#24 - X_8#25 - X_13#26 >= 0
 c6:  2 X_1#14 + X_3#15 + 2 X_5#16 + 2 X_9#17 >= 3
 c7:  X_3#15 + X_9#17 + 4 X_10#19 + 3 X_2#24 + 4 X_13#26 >= 4
 c8:  6 X_11#20 + 4 X_4#21 + 6 X_12#23 >= 4
 c9:  2 X_3#15 + X_5#16 + 5 X_6#18 + X_4#21 + 5 X_7#22 + 5 X_8#25 >= 3
 c10: 3 X_1#14 + 3 X_2#24 >= 6
 c11: Y_1#7 + Y_2#8 - Y_3#9 + Y_5#11 + X_1#27 - X_3#28 - X_5#29 - X_9#30 >= 0
 c12: 3 Y_7#13 + X_1#27 - X_6#31 - X_10#32 >= 0
 c13: X_1#27 - X_11#33 >= 0
 c14: Y_2#8 + 5 Y_4#10 + 2 Y_5#11 + Y_6#12 - X_4#34 - X_7#35 - X_12#36 >= 0
 c15: Y_1#7 + 3 Y_6#12 + Y_7#13 - X_2#37 - X_8#38 - X_13#39 >= 0
 c16: 2 Y_3#9 + X_3#28 + 2 X_5#29 + 2 X_9#30 >= 3
 c17: X_3#28 + X_9#30 + 4 X_10#32 + 3 X_2#37 + 4 X_13#39 >= 4
 c18: 6 X_11#33 + 4 X_4#34 + 6 X_12#36 >= 4
 c19: 2 X_3#28 + X_5#29 + 5 X_6#31 + X_4#34 + 5 X_7#35 + 5 X_8#38 >= 3
 c20: 3 Y_3#9 + 3 X_2#37 >= 6
Bounds
      Y_1#7 >= 0
      Y_2#8 >= 0
      Y_3#9 >= 0
      Y_4#10 >= 0
      Y_5#11 >= 0
      Y_6#12 >= 0
      Y_7#13 >= 0
      X_1#27 >= 0
      X_3#28 >= 0
      X_5#29 >= 0
      X_9#30 >= 0
      X_6#31 >= 0
      X_10#32 >= 0
      X_11#33 >= 0
      X_4#34 >= 0
      X_7#35 >= 0
      X_12#36 >= 0
      X_2#37 >= 0
      X_8#38 >= 0
      X_13#39 >= 0
Generals
 Y_1#7  Y_2#8  Y_3#9  Y_4#10  Y_5#11  Y_6#12  Y_7#13  X_1#27  X_3#28  X_5#29 
 X_9#30  X_6#31  X_10#32  X_11#33  X_4#34  X_7#35  X_12#36  X_2#37  X_8#38 
 X_13#39 
End
